# MIDIVisualizer configuration file.
# Version (do not modify)
6 2

# Background opacity (number in [0.000000,1.000000])
bg-img-opacity: 1

# Blur attenuation speed (number in [0.000000,1.000000])
blur-attenuation: 0.99

# Flash effect size (number in [0.100000,3.000000])
flashes-size: 1

# Vertical size of the keyboard (number in [0.000000,1.000000])
keyboard-size: 0.2

# Relative size of the minor keys and notes (number in [0.100000,1.000000])
minor-size: 0.8

# Particles expansion factor (number)
particles-expansion: 1

# Size of the particles (number in [1.000000,10.000000])
particles-size: 1

# Particles speed (number)
particles-speed: 0.2

# Pedal indicator opacity when not pressed (number in [0.000000,1.000000])
pedal-opacity: 0

# Pedal indicator size (number in [0.050000,0.500000])
pedal-size: 0.2

# Preroll time in seconds before starting to play (number)
preroll: 1

# Playback speed (number)
scroll-speed: 1

# Vertical display scale (number)
time-scale: 0.5

# Wave effect amplitude (number in [0.000000,5.000000])
wave-amplitude: 1

# Wave effect frequency (number in [0.000000,5.000000])
wave-frequency: 1

# Wave effect opacity (number in [0.000000,1.000000])
wave-opacity: 1

# Wave effect size (number in [0.000000,5.000000])
wave-size: 1

# Highest key to display (key index in [0,127]: 0 is C-1, 1 is C-1#, etc.)
max-key: 108

# Lowest key to display (key index in [0,127]: 0 is C-1, 1 is C-1#, etc.)
min-key: 21

# Particles count (integer in [1,512])
particles-count: 256

# Pedal location on screen (top-left: 0, bottom-left: 1, top-right: 2, bottom-right: 3)
pedal-location: 3

# How should notes be grouped into sets (per-channel: 0, per-track: 1, based on a key separator: 2)
sets-mode: 0

# If notes are grouped in two sets, defines the key where the split should happen (key index in [0,127]: 0 is C-1, 1 is C-1#, etc.)
sets-separator-key: 64

# Should the background image extend behind the keyboard (1 or 0 to enable/disable)
bg-img-behind-keyboard: 0

# Should each notes set use its own key/effects colors (1 or 0 to enable/disable)
colors-per-set: 0

# Override notes color for pressed keys (1 or 0 to enable/disable)
keyboard-custom-colors: 0

# Should the pressed keys be highlighted (1 or 0 to enable/disable)
keyboard-highlight: 1

# Should the keys and all effects use the same color (1 or 0 to enable/disable)
lock-colors: 1

# Display only one pedal (1 or 0 to enable/disable)
pedal-merge: 0

# Notes scroll from bottom to top instead of the opposite (1 or 0 to enable/disable)
scroll-reverse: 1

# Use a background texture (1 or 0 to enable/disable)
show-bg-img: 0

# Should the blur be visible (1 or 0 to enable/disable)
show-blur: 1

# Should the notes be part of the blur (1 or 0 to enable/disable)
show-blur-notes: 0

# Should flashes be shown (1 or 0 to enable/disable)
show-flashes: 1

# Should horizontal score lines be showed (1 or 0 to enable/disable)
show-horiz-lines: 1

# Should the keyboard be shown (1 or 0 to enable/disable)
show-keyboard: 1

# Should the notes be shown (1 or 0 to enable/disable)
show-notes: 1

# Should measure numbers be shown (1 or 0 to enable/disable)
show-numbers: 1

# Should particles be shown (1 or 0 to enable/disable)
show-particles: 1

# Display the pedals indicator (1 or 0 to enable/disable)
show-pedal: 1

# Should the score (lines, numbers) be shown (1 or 0 to enable/disable)
show-score: 1

# Should vertical score lines be shown (1 or 0 to enable/disable)
show-vert-lines: 1

# Display the wave effect along the top of the keyboard (1 or 0 to enable/disable)
show-wave: 1

# Apply anti-aliasing to smooth all lines (1 or 0 to enable/disable)
smooth: 0

# Background color (R G B in [0.0, 1.0])
color-bg: 0 0 0

# Flash effect color (R G B in [0.0, 1.0])
color-flashes: 0.7695 0.2565 1.323

# Flash effect color for set 1 (R G B in [0.0, 1.0])
color-flashes-1: 0.7695 0.2565 1.323

# Flash effect color for set 2 (R G B in [0.0, 1.0])
color-flashes-2: 0.7695 0.2565 1.323

# Flash effect color for set 3 (R G B in [0.0, 1.0])
color-flashes-3: 0.7695 0.2565 1.323

# Flash effect color for set 4 (R G B in [0.0, 1.0])
color-flashes-4: 0.7695 0.2565 1.323

# Flash effect color for set 5 (R G B in [0.0, 1.0])
color-flashes-5: 0.7695 0.2565 1.323

# Flash effect color for set 6 (R G B in [0.0, 1.0])
color-flashes-6: 0.7695 0.2565 1.323

# Flash effect color for set 7 (R G B in [0.0, 1.0])
color-flashes-7: 0.7695 0.2565 1.323

# Keyboard black keys color (R G B in [0.0, 1.0])
color-keyboard: 0 0 0

# Custom color for pressed major keys (R G B in [0.0, 1.0])
color-keyboard-major: 0.7695 0.2565 1.323

# Custom color for pressed minor keys (R G B in [0.0, 1.0])
color-keyboard-minor: 0.6156 0.2052 1.0584

# Score lines color (R G B in [0.0, 1.0])
color-lines: 1 1 1

# Major notes color (R G B in [0.0, 1.0])
color-major: 0.7695 0.2565 1.323

# Major notes color for set 1 (R G B in [0.0, 1.0])
color-major-1: 0.7695 0.2565 1.323

# Major notes color for set 2 (R G B in [0.0, 1.0])
color-major-2: 0.7695 0.2565 1.323

# Major notes color for set 3 (R G B in [0.0, 1.0])
color-major-3: 0.7695 0.2565 1.323

# Major notes color for set 4 (R G B in [0.0, 1.0])
color-major-4: 0.7695 0.2565 1.323

# Major notes color for set 5 (R G B in [0.0, 1.0])
color-major-5: 0.7695 0.2565 1.323

# Major notes color for set 6 (R G B in [0.0, 1.0])
color-major-6: 0.7695 0.2565 1.323

# Major notes color for set 7 (R G B in [0.0, 1.0])
color-major-7: 0.7695 0.2565 1.323

# Minor notes color (R G B in [0.0, 1.0])
color-minor: 0.6156 0.2052 1.0584

# Minor notes color for set 1 (R G B in [0.0, 1.0])
color-minor-1: 0.6156 0.2052 1.0584

# Minor notes color for set 2 (R G B in [0.0, 1.0])
color-minor-2: 0.6156 0.2052 1.0584

# Minor notes color for set 3 (R G B in [0.0, 1.0])
color-minor-3: 0.6156 0.2052 1.0584

# Minor notes color for set 4 (R G B in [0.0, 1.0])
color-minor-4: 0.6156 0.2052 1.0584

# Minor notes color for set 5 (R G B in [0.0, 1.0])
color-minor-5: 0.6156 0.2052 1.0584

# Minor notes color for set 6 (R G B in [0.0, 1.0])
color-minor-6: 0.6156 0.2052 1.0584

# Minor notes color for set 7 (R G B in [0.0, 1.0])
color-minor-7: 0.6156 0.2052 1.0584

# Score measure numbers color (R G B in [0.0, 1.0])
color-numbers: 1 1 1

# Particles color (R G B in [0.0, 1.0])
color-particles: 0.7695 0.2565 1.323

# Particles color for set 1 (R G B in [0.0, 1.0])
color-particles-1: 0.7695 0.2565 1.323

# Particles color for set 2 (R G B in [0.0, 1.0])
color-particles-2: 0.7695 0.2565 1.323

# Particles color for set 3 (R G B in [0.0, 1.0])
color-particles-3: 0.7695 0.2565 1.323

# Particles color for set 4 (R G B in [0.0, 1.0])
color-particles-4: 0.7695 0.2565 1.323

# Particles color for set 5 (R G B in [0.0, 1.0])
color-particles-5: 0.7695 0.2565 1.323

# Particles color for set 6 (R G B in [0.0, 1.0])
color-particles-6: 0.7695 0.2565 1.323

# Particles color for set 7 (R G B in [0.0, 1.0])
color-particles-7: 0.7695 0.2565 1.323

# Pedal color when pressed (R G B in [0.0, 1.0])
color-pedal: 0.7695 0.2565 1.323

# Wave effect color (R G B in [0.0, 1.0])
color-wave: 0.7695 0.2565 1.323

# Rendering quality (values: LOW_RES, LOW, MEDIUM, HIGH, HIGH_RES)
quality: MEDIUM

# Active layers indices, from background to foreground (values: bg-color: 0, bg-texture: 1, blur: 2, score: 3, keyboard: 4, particles: 5, notes: 6, flashes: 7, pedal: 8, wave: 9)
layers: 0 1 2 3 4 5 6 7 8 9 10 11 12 13 14 15
